22:12:17 | INFO    | Run started | run_id: SR_SV_WT_case1_P12_eps9999 | log file: C:\Users\Asus\Documents\GitHub\logistics-model2\internal-logistics-model2\results\SR_SV_WT\case1\SR_SV_WT_case1_P12_eps9999_2026_05_04_22_12.log
22:12:18 | INFO    | Products loaded | sheet=case1 | rows=15
22:12:18 | INFO    | Data loaded | |N|=31 |Nw|=30 |K|=1 |R|=1 |P|=12 | U=30
22:12:18 | INFO    | Big-M | time=491.0 precedence=480.0 wait=465.0 load_lb=20 load_ub=20
22:12:18 | INFO    | Set parameter Username
22:12:18 | INFO    | Set parameter LicenseID to value 2811848
22:12:18 | INFO    | Academic license - for non-commercial use only - expires 2027-04-22
22:12:18 | INFO    | Objective set | primary: min total_wait | tie-break weight on route_duration: 0.001
22:12:18 | INFO    | Constraint (3) added | route_duration <= 9999
22:12:18 | INFO    | Constraints (4)-(9) added | route structure
22:12:18 | INFO    | Constraints (10)-(12) added | product assignment
22:12:18 | INFO    | Constraints (13)-(15) added | route timing
22:12:18 | INFO    | Constraints (16) added | time consistency
22:12:18 | INFO    | Constraints (17)-(19) added | service times
22:12:18 | INFO    | Constraints (20)-(22) added | precedence, route closure, waiting
22:12:18 | INFO    | Constraints (23)-(27) added | load propagation
22:12:18 | INFO    | Constraints (28)-(32) added | MTZ and route ordering
22:12:18 | INFO    | Set parameter TimeLimit to value 600
22:12:18 | INFO    | Set parameter MIPGap to value 0.01
22:12:18 | INFO    | Set parameter Presolve to value 2
22:12:18 | INFO    | Set parameter LogFile to value "C:\Users\Asus\Documents\GitHub\logistics-model2\internal-logistics-model2\results\SR_SV_WT\case1\result_SR_SV_WT_case1_P12_eps9999_2026_05_04_22_12.log"
22:12:18 | INFO    | Solver configured | TimeLimit=600s | MIPGap=0.01 | gurobi_log=C:\Users\Asus\Documents\GitHub\logistics-model2\internal-logistics-model2\results\SR_SV_WT\case1\result_SR_SV_WT_case1_P12_eps9999_2026_05_04_22_12.log
22:12:18 | INFO    | Optimization starting...
22:12:18 | INFO    | Gurobi Optimizer version 12.0.0 build v12.0.0rc1 (win64 - Windows 10.0 (19045.2))
22:12:18 | INFO    | 
22:12:18 | INFO    | CPU model: 12th Gen Intel(R) Core(TM) i7-12650H, instruction set [SSE2|AVX|AVX2]
22:12:18 | INFO    | Thread count: 10 physical cores, 16 logical processors, using up to 16 threads
22:12:18 | INFO    | 
22:12:18 | INFO    | Non-default parameters:
22:12:18 | INFO    | TimeLimit  600
22:12:18 | INFO    | MIPGap  0.01
22:12:18 | INFO    | Presolve  2
22:12:18 | INFO    | 
22:12:18 | INFO    | Optimize a model with 3901 rows, 1137 columns and 19997 nonzeros
22:12:18 | INFO    | Model fingerprint: 0x36b5faf0
22:12:18 | INFO    | Variable types: 165 continuous, 972 integer (942 binary)
22:12:18 | INFO    | Coefficient statistics:
22:12:18 | INFO    |   Matrix range     [1e+00, 5e+02]
22:12:18 | INFO    |   Objective range  [1e-03, 1e+00]
22:12:18 | INFO    |   Bounds range     [1e+00, 3e+01]
22:12:18 | INFO    |   RHS range        [1e+00, 1e+04]
22:12:18 | INFO    | Presolve removed 1558 rows and 450 columns
22:12:18 | INFO    | Presolve time: 0.04s
22:12:18 | INFO    | Presolved: 2343 rows, 687 columns, 18941 nonzeros
22:12:18 | INFO    | Variable types: 75 continuous, 612 integer (588 binary)
22:12:18 | INFO    | Root relaxation presolve removed 26 rows and 0 columns
22:12:18 | INFO    | Root relaxation presolved: 2317 rows, 712 columns, 18891 nonzeros
22:12:18 | INFO    | 
22:12:18 | INFO    | 
22:12:18 | INFO    | Root relaxation: objective 3.600000e+01, 276 iterations, 0.02 seconds (0.03 work units)
22:12:18 | INFO    | 
22:12:18 | INFO    |     Nodes    |    Current Node    |     Objective Bounds      |     Work
22:12:18 | INFO    |  Expl Unexpl |  Obj  Depth IntInf | Incumbent    BestBd   Gap | It/Node Time
22:12:18 | INFO    | 
22:12:18 | INFO    |      0     0   36.00000    0   29          -   36.00000      -     -    0s
22:12:18 | INFO    | H    0     0                    1018.9990000   36.00000  96.5%     -    0s
22:12:18 | INFO    |      0     0   36.00000    0   62 1018.99900   36.00000  96.5%     -    0s
22:12:18 | INFO    | H    0     0                    1009.1830000   36.00000  96.4%     -    0s
22:12:18 | INFO    |      0     0   36.00000    0   64 1009.18300   36.00000  96.4%     -    0s
22:12:18 | INFO    |      0     0   36.00000    0   33 1009.18300   36.00000  96.4%     -    0s
22:12:18 | INFO    |      0     0   36.00000    0   47 1009.18300   36.00000  96.4%     -    0s
22:12:18 | INFO    |      0     0   36.00000    0   54 1009.18300   36.00000  96.4%     -    0s
22:12:18 | INFO    |      0     0   36.00000    0   51 1009.18300   36.00000  96.4%     -    0s
22:12:18 | INFO    |      0     0   36.00000    0   36 1009.18300   36.00000  96.4%     -    0s
22:12:18 | INFO    |      0     0   36.00000    0   36 1009.18300   36.00000  96.4%     -    0s
22:12:18 | INFO    | H    0     0                     998.1850000   36.00000  96.4%     -    0s
22:12:18 | INFO    |      0     2   36.00000    0   28  998.18500   36.00000  96.4%     -    0s
22:12:19 | INFO    | H   88   103                     984.1840000   36.00000  96.3%   145    0s
22:12:19 | INFO    | H  448   481                     978.1830000   36.00000  96.3%  72.7    1s
22:12:19 | INFO    | H  466   481                     963.1800000   36.00000  96.3%  71.0    1s
22:12:21 | INFO    | H 1168  1181                     937.1780000   36.00000  96.2%  46.0    3s
22:12:23 | INFO    |   2238  2065  305.05700  133  109  937.17800   82.72006  91.2%  39.7    5s
22:12:23 | INFO    | H 2261  1975                     917.1780000   85.58437  90.7%  39.3    5s
22:12:25 | INFO    | H 2328  1920                     907.1780000   87.45669  90.4%  43.5    7s
22:12:28 | INFO    | H 2402  1904                     712.1660000   89.67534  87.4%  48.3    9s
22:12:28 | INFO    |   2433  1917   90.09069   43  108  712.16600   89.67534  87.4%  48.5   10s
22:12:28 | INFO    | H 2561  1895                     706.1660000   89.67534  87.3%  50.4   10s
22:12:28 | INFO    | H 2645  1875                     640.1570000   89.67534  86.0%  51.4   10s
22:12:28 | INFO    | H 2749  1842                     636.1490000   89.67534  85.9%  52.4   10s
22:12:29 | INFO    | H 4104  2674                     575.1440000   89.67534  84.4%  54.2   11s
22:12:30 | INFO    | H 5654  3635                     573.1450000   89.67534  84.4%  51.3   12s
22:12:31 | INFO    | H 7043  4382                     571.1400000   89.97917  84.2%  50.2   13s
22:12:33 | INFO    |  12447 10008  109.36832   75   78  571.14000   90.86051  84.1%  41.7   15s
22:12:33 | INFO    | H14138 10539                     558.1380000   90.86051  83.7%  40.3   15s
22:12:37 | INFO    | H26344 20890                     544.1390000   92.27845  83.0%  34.6   19s
22:12:38 | INFO    |  28531 23720  132.71454   80   49  544.13900   92.33281  83.0%  34.1   20s
22:12:41 | INFO    | H36661 29579                     540.1360000   92.59670  82.9%  32.9   22s
22:12:42 | INFO    | H39412 33206                     534.1350000   92.63001  82.7%  32.4   24s
22:12:49 | INFO    |  40904 33207   97.98228   62   36  534.13500   92.65648  82.7%  32.0   31s
22:12:53 | INFO    |  40938 33230  322.19816  150  125  534.13500   94.19982  82.4%  32.0   35s
22:12:56 | INFO    | H40960 31580                     534.1330000   95.13850  82.2%  31.9   37s
22:12:56 | INFO    | H40965 30004                     533.1360000   95.13850  82.2%  31.9   38s
22:12:57 | INFO    | H40966 28503                     528.1430000   95.19893  82.0%  31.9   38s
22:12:58 | INFO    |  40981 28513  169.50324  173  150  528.14300   95.39781  81.9%  31.9   40s
22:13:03 | INFO    |  41019 28539  158.18886  128  161  528.14300   95.90437  81.8%  31.9   45s
22:13:04 | INFO    | H41026 27114                     522.1350000   95.90582  81.6%  31.9   46s
22:13:05 | INFO    | H41027 25757                     519.1340000   95.90582  81.5%  31.9   46s
22:13:08 | INFO    |  41049 25772   96.04149   55  158  519.13400   96.04149  81.5%  31.9   50s
22:13:09 | INFO    | H41049 24481                     514.1410000   96.12179  81.3%  31.9   50s
22:13:13 | INFO    |  41080 24501  173.10876   58  151  514.14100   96.12179  81.3%  31.8   55s
22:13:16 | INFO    | H41099 23285                     511.1370000   96.13478  81.2%  31.8   58s
22:13:18 | INFO    |  41105 23292   96.16727   49  135  511.13700   96.13478  81.2%  32.2   60s
22:13:22 | INFO    | H41478 22389                     507.1370000   97.16119  80.8%  33.4   64s
22:13:23 | INFO    |  41730 22607  111.58333   68   85  507.13700   97.16119  80.8%  33.7   65s
22:13:28 | INFO    |  44996 24780  161.36705  151   52  507.13700   97.29706  80.8%  35.8   70s
22:13:33 | INFO    |  51646 28468  143.14033  111   37  507.13700   98.44429  80.6%  37.2   75s
22:13:38 | INFO    |  60712 33171  104.47117   67   85  507.13700   99.25829  80.4%  38.7   80s
22:13:43 | INFO    |  68159 37665  140.45875  136   55  507.13700   99.61629  80.4%  38.8   85s
22:13:49 | INFO    |  74267 40242  100.92021   64  100  507.13700   99.85690  80.3%  40.0   90s
22:13:53 | INFO    |  79584 44825  152.95319  102   64  507.13700  100.05019  80.3%  39.5   95s
22:13:58 | INFO    |  89076 49047  191.05999  159   56  507.13700  100.23694  80.2%  39.2  100s
22:14:03 | INFO    |  100155 54758  104.07097   71   98  507.13700  100.44372  80.2%  38.4  105s
22:14:08 | INFO    |  109631 60034  164.86316  147   43  507.13700  100.57981  80.2%  37.7  110s
22:14:13 | INFO    |  121359 69868  104.79898   81   92  507.13700  100.64500  80.2%  37.0  115s
22:14:18 | INFO    |  129865 77489  131.91415   93   58  507.13700  100.78205  80.1%  36.6  120s
22:14:23 | INFO    |  131294 77792  153.63555   71   48  507.13700  100.78818  80.1%  36.6  125s
22:14:28 | INFO    |  134512 81525  101.91808   68   98  507.13700  100.83136  80.1%  36.6  130s
22:14:33 | INFO    |  142650 89748  108.60127   84   88  507.13700  100.90658  80.1%  36.4  135s
22:14:38 | INFO    |  150417 96168  163.03714   98   43  507.13700  100.95053  80.1%  36.5  140s
22:14:43 | INFO    |  158966 101573  320.42243  150   42  507.13700  101.02887  80.1%  36.5  145s
22:14:48 | INFO    |  163549 107208  134.01564  141   55  507.13700  101.03304  80.1%  36.7  150s
22:14:54 | INFO    |  170733 113457  307.57071  167   26  507.13700  101.07798  80.1%  36.4  155s
22:14:58 | INFO    |  178028 119298  147.84646  159   59  507.13700  101.14631  80.1%  36.3  160s
22:15:04 | INFO    |  184155 124989  116.80407   79   97  507.13700  101.18275  80.0%  36.1  166s
22:15:08 | INFO    |  191641 130998  111.04421   84   81  507.13700  101.20367  80.0%  36.0  170s
22:15:14 | INFO    |  199274 137480  131.89849  134   54  507.13700  101.27021  80.0%  36.2  176s
22:15:18 | INFO    |  206136 141627  141.12101  101   37  507.13700  101.31661  80.0%  36.0  180s
22:15:24 | INFO    |  209240 145980  242.99186  215   46  507.13700  101.33808  80.0%  36.1  185s
22:15:29 | INFO    |  217333 151249  105.04139   71   89  507.13700  101.39418  80.0%  35.9  190s
22:15:34 | INFO    |  220503 154622  107.04368   76   76  507.13700  101.40980  80.0%  36.0  195s
22:15:38 | INFO    |  226038 160443  460.20472  156   26  507.13700  101.43703  80.0%  36.0  200s
22:15:43 | INFO    |  234776 166829  132.40048  104   48  507.13700  101.48647  80.0%  35.7  205s
22:15:48 | INFO    |  241040 172507  110.32606   70   78  507.13700  101.51641  80.0%  35.7  210s
22:15:54 | INFO    |  249882 181060  305.51174  221   19  507.13700  101.56341  80.0%  35.5  216s
22:15:58 | INFO    |  256197 185059  109.66242   92   72  507.13700  101.59819  80.0%  35.4  220s
22:16:03 | INFO    |  261946 190672  153.52477  126   47  507.13700  101.59821  80.0%  35.2  225s
22:16:09 | INFO    |  267340 195318  130.56219  127   66  507.13700  101.59821  80.0%  35.1  231s
22:16:14 | INFO    |  270596 199298  186.14506  176   44  507.13700  101.65449  80.0%  35.1  236s
22:16:18 | INFO    |  274111 201475  118.79971  133   80  507.13700  101.66603  80.0%  35.1  240s
22:16:25 | INFO    |  278247 205256  302.57277  160   38  507.13700  101.68656  79.9%  35.1  247s
22:16:30 | INFO    |  281148 206520  105.70198   80   68  507.13700  101.70155  79.9%  35.1  252s
22:16:35 | INFO    |  283407 209991  103.82452   70   91  507.13700  101.71156  79.9%  35.1  257s
22:16:39 | INFO    |  287274 213389  103.51535   70   94  507.13700  101.72777  79.9%  35.0  261s
22:16:44 | INFO    |  290782 215078  139.02448   82   41  507.13700  101.72777  79.9%  34.9  266s
22:16:49 | INFO    |  294140 218104  109.34270   68   88  507.13700  101.76784  79.9%  34.9  271s
22:16:54 | INFO    |  297397 221862  116.28252  120   59  507.13700  101.76784  79.9%  34.9  276s
22:16:58 | INFO    |  300581 223882  107.14335   80   68  507.13700  101.78766  79.9%  34.8  280s
22:17:04 | INFO    |  302654 225039  128.83594  134   61  507.13700  101.79091  79.9%  34.8  286s
22:17:09 | INFO    |  303865 227045  178.73451   94   51  507.13700  101.79943  79.9%  34.8  291s
22:17:14 | INFO    |  306584 229662  117.62491  134   67  507.13700  101.80018  79.9%  34.8  296s
22:17:19 | INFO    |  310618 232276  123.90205  147   49  507.13700  101.82687  79.9%  34.7  301s
22:17:25 | INFO    |  312672 235428  127.75593  106   98  507.13700  101.85212  79.9%  34.8  307s
22:17:29 | INFO    |  317066 237030  108.23685   64   53  507.13700  101.86204  79.9%  34.7  311s
22:17:34 | INFO    |  317290 237688  114.79739   65   49  507.13700  101.86204  79.9%  34.7  316s
22:17:38 | INFO    |  318819 239627  102.29847   70   92  507.13700  101.86380  79.9%  34.7  320s
22:17:43 | INFO    |  326036 246002  145.65806  250   69  507.13700  101.89771  79.9%  34.7  325s
22:17:50 | INFO    |  333049 252098  146.26362   95   51  507.13700  101.93651  79.9%  34.6  331s
22:17:53 | INFO    |  335043 253957  107.29081   81   85  507.13700  101.93872  79.9%  34.7  335s
22:17:58 | INFO    |  338536 256949  108.18950   62   77  507.13700  101.96050  79.9%  34.6  340s
22:18:04 | INFO    |  343712 259965  141.66918   96   48  507.13700  101.96175  79.9%  34.6  346s
22:18:09 | INFO    |  346400 262223  295.59488  134   24  507.13700  101.96990  79.9%  34.7  350s
22:18:14 | INFO    |  352680 268104  110.51312   73   73  507.13700  102.03113  79.9%  34.7  356s
22:18:19 | INFO    |  359497 273385  108.59854   77   84  507.13700  102.03113  79.9%  34.6  360s
22:18:24 | INFO    |  364708 278633  150.52232  150   65  507.13700  102.05743  79.9%  34.6  366s
22:18:29 | INFO    |  371604 283940  104.72360   75   92  507.13700  102.08676  79.9%  34.5  370s
22:18:33 | INFO    |  375428 287314  132.49493  126   67  507.13700  102.08756  79.9%  34.5  375s
22:18:39 | INFO    |  382928 294829  111.15377   66   78  507.13700  102.10568  79.9%  34.4  381s
22:18:43 | INFO    |  389962 299851  196.31342  187   44  507.13700  102.11538  79.9%  34.3  385s
22:18:48 | INFO    |  395088 304168  119.87186   87   69  507.13700  102.11538  79.9%  34.4  390s
22:18:58 | INFO    |  397955 313283  106.87153   89   71  507.13700  102.16075  79.9%  34.4  399s
22:18:58 | INFO    |  400133 313283  129.66493  196   69  507.13700  102.16075  79.9%  34.4  400s
22:19:03 | INFO    |  411866 318752  119.91336   85   65  507.13700  102.18179  79.9%  34.3  405s
22:19:08 | INFO    |  417494 323820  145.44713  116   38  507.13700  102.21365  79.8%  34.3  410s
22:19:13 | INFO    |  425319 331035  103.76176   68  117  507.13700  102.24505  79.8%  34.3  415s
22:19:18 | INFO    |  430698 334970  104.33239   76   79  507.13700  102.25540  79.8%  34.3  420s
22:19:23 | INFO    |  436327 339854  107.93646   97   54  507.13700  102.27097  79.8%  34.3  425s
22:19:29 | INFO    |  441561 343177  198.41189  165   52  507.13700  102.28383  79.8%  34.3  431s
22:19:35 | INFO    |  441638 343229  210.84087  169   43  507.13700  102.28577  79.8%  34.3  436s
22:19:38 | INFO    |  441671 343315  237.27321  171   36  507.13700  102.28577  79.8%  34.3  440s
22:19:44 | INFO    |  442491 346112  237.79816  173   35  507.13700  102.28713  79.8%  34.3  446s
22:19:48 | INFO    |  446670 348764  167.36001  180   42  507.13700  102.29261  79.8%  34.3  450s
22:19:53 | INFO    |  449138 351532  114.56228   78   73  507.13700  102.30442  79.8%  34.3  455s
22:19:58 | INFO    |  453739 355316  138.38842  125   53  507.13700  102.32064  79.8%  34.4  460s
22:20:03 | INFO    |  458865 360699  139.38022  109   48  507.13700  102.33228  79.8%  34.4  465s
22:20:08 | INFO    |  466402 365227  142.91166   82   50  507.13700  102.35650  79.8%  34.3  470s
22:20:14 | INFO    |  473028 369716  146.09437  206   50  507.13700  102.37197  79.8%  34.4  476s
22:20:19 | INFO    |  475836 372726  109.87334   70   69  507.13700  102.37245  79.8%  34.4  481s
22:20:24 | INFO    |  480350 378145  108.83908   66   69  507.13700  102.39081  79.8%  34.5  486s
22:20:28 | INFO    |  487658 382828  102.83910   70  118  507.13700  102.40795  79.8%  34.4  490s
22:20:33 | INFO    |  491742 387773  111.81201   89   90  507.13700  102.40846  79.8%  34.4  495s
22:20:39 | INFO    |  498792 392098  105.90013   66   79  507.13700  102.43394  79.8%  34.4  500s
22:20:44 | INFO    |  503087 397398  157.14809  216   44  507.13700  102.43394  79.8%  34.5  506s
22:20:55 | INFO    |  505690 405734  130.43783  156   69  507.13700  102.45017  79.8%  34.4  516s
22:20:59 | INFO    |  515290 408309  243.19263   74   50  507.13700  102.46802  79.8%  34.4  521s
22:21:04 | INFO    |  520961 412451  109.06686  102   65  507.13700  102.49577  79.8%  34.4  525s
22:21:09 | INFO    |  527744 418716  111.03849   85   65  507.13700  102.51233  79.8%  34.3  531s
22:21:13 | INFO    |  535502 424288  129.86787   85   63  507.13700  102.52798  79.8%  34.3  535s
22:21:19 | INFO    |  542360 429469  135.96718  168   62  507.13700  102.53138  79.8%  34.2  541s
22:21:24 | INFO    |  548257 435402  105.65691   82   83  507.13700  102.55553  79.8%  34.2  546s
22:21:28 | INFO    |  552234 438571  105.62517   71   89  507.13700  102.56682  79.8%  34.2  550s
22:21:34 | INFO    |  558561 443475  282.39093  130   36  507.13700  102.57651  79.8%  34.2  555s
22:21:38 | INFO    |  563491 447554  143.06422   85   48  507.13700  102.58631  79.8%  34.2  560s
22:21:45 | INFO    |  569505 454056  333.75223  217   26  507.13700  102.59158  79.8%  34.2  566s
22:21:49 | INFO    |  574133 457179  132.49366  113   59  507.13700  102.61093  79.8%  34.2  570s
22:21:53 | INFO    |  579087 460760  125.07812  108   74  507.13700  102.62453  79.8%  34.1  575s
22:21:58 | INFO    |  583437 465583  129.37744   95   49  507.13700  102.63564  79.8%  34.1  580s
22:22:04 | INFO    |  591314 472931  145.41394  181   47  507.13700  102.64936  79.8%  34.1  586s
22:22:08 | INFO    |  595424 475841  119.79682   86   69  507.13700  102.65320  79.8%  34.0  590s
22:22:13 | INFO    |  602419 481684  107.05558   65  102  507.13700  102.66113  79.8%  34.0  595s
22:22:18 | INFO    |  608037 485480  106.88117   70   61  507.13700  102.66789  79.8%  34.0  600s
22:22:18 | INFO    | 
22:22:18 | INFO    | Cutting planes:
22:22:18 | INFO    |   Learned: 32
22:22:18 | INFO    |   Gomory: 34
22:22:18 | INFO    |   Cover: 36
22:22:18 | INFO    |   Implied bound: 273
22:22:18 | INFO    |   Projected implied bound: 8
22:22:18 | INFO    |   MIR: 980
22:22:18 | INFO    |   Mixing: 7
22:22:18 | INFO    |   StrongCG: 30
22:22:18 | INFO    |   Flow cover: 2138
22:22:18 | INFO    |   GUB cover: 2
22:22:18 | INFO    |   Inf proof: 45
22:22:18 | INFO    |   Zero half: 12
22:22:18 | INFO    |   RLT: 307
22:22:18 | INFO    |   Relax-and-lift: 445
22:22:18 | INFO    |   BQP: 5
22:22:18 | INFO    |   PSD: 23
22:22:18 | INFO    | 
22:22:18 | INFO    | Explored 608637 nodes (20672165 simplex iterations) in 600.12 seconds (405.27 work units)
22:22:18 | INFO    | Thread count was 16 (of 16 available processors)
22:22:18 | INFO    | 
22:22:18 | INFO    | Solution count 10: 507.137 511.137 514.141 ... 540.136
22:22:18 | INFO    | 
22:22:18 | INFO    | Time limit reached
22:22:18 | INFO    | Best objective 5.071370000000e+02, best bound 1.026678931254e+02, gap 79.7554%
22:22:18 | INFO    | Solution found | total_wait=507.00 | route_duration=137.00
22:22:18 | INFO    | Objective=507.14 | runtime=600.13s | MIP Gap=79.76%
22:22:18 | INFO    | Generating Excel output | C:\Users\Asus\Documents\GitHub\logistics-model2\internal-logistics-model2\results\SR_SV_WT\case1\result_SR_SV_WT_case1_P12_eps9999_2026_05_04_22_12.xlsx
22:22:18 | INFO    | Excel output written | 12 sheets | C:\Users\Asus\Documents\GitHub\logistics-model2\internal-logistics-model2\results\SR_SV_WT\case1\result_SR_SV_WT_case1_P12_eps9999_2026_05_04_22_12.xlsx
22:22:19 | INFO    | Master Pareto updated | 22 total rows | C:\Users\Asus\Documents\GitHub\logistics-model2\internal-logistics-model2\results\master_pareto.xlsx
22:22:19 | INFO    | Run complete | run_id=SR_SV_WT_case1_P12_eps9999
